# Solution for model CHU-03
# Objective value = 3.3241956132115277e+01
x[0,1,1] 0
x[0,1,2] 0
x[0,1,3] 0
x[0,2,1] 0
x[0,2,2] 1
x[0,2,3] 0
x[0,3,1] 0
x[0,3,2] 0
x[0,3,3] 0
x[0,4,1] 0
x[0,4,2] 0
x[0,4,3] 0
x[0,5,1] 0
x[0,5,2] 0
x[0,5,3] 0
x[0,6,1] 0
x[0,6,2] 0
x[0,6,3] 0
x[0,7,1] 0
x[0,7,2] 0
x[0,7,3] 0
x[0,8,1] 0
x[0,8,2] 0
x[0,8,3] 0
x[0,9,1] 0
x[0,9,2] 0
x[0,9,3] 1
x[0,10,1] 0
x[0,10,2] 0
x[0,10,3] 0
x[0,11,1] 0
x[0,11,2] 0
x[0,11,3] 0
x[0,12,1] 1
x[0,12,2] 0
x[0,12,3] 0
x[0,13,1] 0
x[0,13,2] 0
x[0,13,3] 0
x[0,14,1] 0
x[0,14,2] 0
x[0,14,3] 0
x[0,15,1] 0
x[0,15,2] 0
x[0,15,3] 0
x[1,0,1] 0
x[1,0,2] 0
x[1,0,3] 0
x[1,2,1] 0
x[1,2,2] 0
x[1,2,3] 0
x[1,3,1] 0
x[1,3,2] 0
x[1,3,3] 0
x[1,4,1] 0
x[1,4,2] 0
x[1,4,3] 0
x[1,5,1] 0
x[1,5,2] 0
x[1,5,3] 0
x[1,6,1] 0
x[1,6,2] 0
x[1,6,3] 0
x[1,7,1] 0
x[1,7,2] 0
x[1,7,3] 0
x[1,8,1] 0
x[1,8,2] 0
x[1,8,3] 0
x[1,9,1] 0
x[1,9,2] 0
x[1,9,3] 0
x[1,10,1] 0
x[1,10,2] 0
x[1,10,3] 0
x[1,11,1] 0
x[1,11,2] 0
x[1,11,3] 0
x[1,12,1] 0
x[1,12,2] 0
x[1,12,3] 0
x[1,13,1] 0
x[1,13,2] 0
x[1,13,3] 0
x[1,14,1] 0
x[1,14,2] 0
x[1,14,3] 0
x[1,15,1] 1
x[1,15,2] 0
x[1,15,3] 0
x[2,0,1] 0
x[2,0,2] 0
x[2,0,3] 0
x[2,1,1] 0
x[2,1,2] 0
x[2,1,3] 0
x[2,3,1] 0
x[2,3,2] 0
x[2,3,3] 0
x[2,4,1] 0
x[2,4,2] 0
x[2,4,3] 0
x[2,5,1] 0
x[2,5,2] 0
x[2,5,3] 0
x[2,6,1] 0
x[2,6,2] 0
x[2,6,3] 0
x[2,7,1] 0
x[2,7,2] 0
x[2,7,3] 0
x[2,8,1] 0
x[2,8,2] 1
x[2,8,3] 0
x[2,9,1] 0
x[2,9,2] 0
x[2,9,3] 0
x[2,10,1] 0
x[2,10,2] 0
x[2,10,3] 0
x[2,11,1] 0
x[2,11,2] 0
x[2,11,3] 0
x[2,12,1] 0
x[2,12,2] 0
x[2,12,3] 0
x[2,13,1] 0
x[2,13,2] 0
x[2,13,3] 0
x[2,14,1] 0
x[2,14,2] 0
x[2,14,3] 0
x[2,15,1] 0
x[2,15,2] 0
x[2,15,3] 0
x[3,0,1] 0
x[3,0,2] 0
x[3,0,3] 0
x[3,1,1] 0
x[3,1,2] 0
x[3,1,3] 0
x[3,2,1] 0
x[3,2,2] 0
x[3,2,3] 0
x[3,4,1] 0
x[3,4,2] 0
x[3,4,3] 0
x[3,5,1] 0
x[3,5,2] 0
x[3,5,3] 0
x[3,6,1] 0
x[3,6,2] 0
x[3,6,3] 0
x[3,7,1] 0
x[3,7,2] 0
x[3,7,3] 0
x[3,8,1] 0
x[3,8,2] 0
x[3,8,3] 0
x[3,9,1] 0
x[3,9,2] 0
x[3,9,3] 0
x[3,10,1] 0
x[3,10,2] 0
x[3,10,3] 0
x[3,11,1] 1
x[3,11,2] 0
x[3,11,3] 0
x[3,12,1] 0
x[3,12,2] 0
x[3,12,3] 0
x[3,13,1] 0
x[3,13,2] 0
x[3,13,3] 0
x[3,14,1] 0
x[3,14,2] 0
x[3,14,3] 0
x[3,15,1] 0
x[3,15,2] 0
x[3,15,3] 0
x[4,0,1] 0
x[4,0,2] 0
x[4,0,3] 1
x[4,1,1] 0
x[4,1,2] 0
x[4,1,3] 0
x[4,2,1] 0
x[4,2,2] 0
x[4,2,3] 0
x[4,3,1] 0
x[4,3,2] 0
x[4,3,3] 0
x[4,5,1] 0
x[4,5,2] 0
x[4,5,3] 0
x[4,6,1] 0
x[4,6,2] 0
x[4,6,3] 0
x[4,7,1] 0
x[4,7,2] 0
x[4,7,3] 0
x[4,8,1] 0
x[4,8,2] 0
x[4,8,3] 0
x[4,9,1] 0
x[4,9,2] 0
x[4,9,3] 0
x[4,10,1] 0
x[4,10,2] 0
x[4,10,3] 0
x[4,11,1] 0
x[4,11,2] 0
x[4,11,3] 0
x[4,12,1] 0
x[4,12,2] 0
x[4,12,3] 0
x[4,13,1] 0
x[4,13,2] 0
x[4,13,3] 0
x[4,14,1] 0
x[4,14,2] 0
x[4,14,3] 0
x[4,15,1] 0
x[4,15,2] 0
x[4,15,3] 0
x[5,0,1] 0
x[5,0,2] 0
x[5,0,3] 0
x[5,1,1] 0
x[5,1,2] 0
x[5,1,3] 0
x[5,2,1] 0
x[5,2,2] 0
x[5,2,3] 0
x[5,3,1] 0
x[5,3,2] 0
x[5,3,3] 0
x[5,4,1] 0
x[5,4,2] 0
x[5,4,3] 1
x[5,6,1] 0
x[5,6,2] 0
x[5,6,3] 0
x[5,7,1] 0
x[5,7,2] 0
x[5,7,3] 0
x[5,8,1] 0
x[5,8,2] 0
x[5,8,3] 0
x[5,9,1] 0
x[5,9,2] 0
x[5,9,3] 0
x[5,10,1] 0
x[5,10,2] 0
x[5,10,3] 0
x[5,11,1] 0
x[5,11,2] 0
x[5,11,3] 0
x[5,12,1] 0
x[5,12,2] 0
x[5,12,3] 0
x[5,13,1] 0
x[5,13,2] 0
x[5,13,3] 0
x[5,14,1] 0
x[5,14,2] 0
x[5,14,3] 0
x[5,15,1] 0
x[5,15,2] 0
x[5,15,3] 0
x[6,0,1] 0
x[6,0,2] 0
x[6,0,3] 0
x[6,1,1] 0
x[6,1,2] 0
x[6,1,3] 0
x[6,2,1] 0
x[6,2,2] 0
x[6,2,3] 0
x[6,3,1] 0
x[6,3,2] 0
x[6,3,3] 0
x[6,4,1] 0
x[6,4,2] 0
x[6,4,3] 0
x[6,5,1] 0
x[6,5,2] 0
x[6,5,3] 0
x[6,7,1] 0
x[6,7,2] 0
x[6,7,3] 0
x[6,8,1] 0
x[6,8,2] 0
x[6,8,3] 0
x[6,9,1] 0
x[6,9,2] 0
x[6,9,3] 0
x[6,10,1] 0
x[6,10,2] 1
x[6,10,3] 0
x[6,11,1] 0
x[6,11,2] 0
x[6,11,3] 0
x[6,12,1] 0
x[6,12,2] 0
x[6,12,3] 0
x[6,13,1] 0
x[6,13,2] 0
x[6,13,3] 0
x[6,14,1] 0
x[6,14,2] 0
x[6,14,3] 0
x[6,15,1] 0
x[6,15,2] 0
x[6,15,3] 0
x[7,0,1] 0
x[7,0,2] 1
x[7,0,3] 0
x[7,1,1] 0
x[7,1,2] 0
x[7,1,3] 0
x[7,2,1] 0
x[7,2,2] 0
x[7,2,3] 0
x[7,3,1] 0
x[7,3,2] 0
x[7,3,3] 0
x[7,4,1] 0
x[7,4,2] 0
x[7,4,3] 0
x[7,5,1] 0
x[7,5,2] 0
x[7,5,3] 0
x[7,6,1] 0
x[7,6,2] 0
x[7,6,3] 0
x[7,8,1] 0
x[7,8,2] 0
x[7,8,3] 0
x[7,9,1] 0
x[7,9,2] 0
x[7,9,3] 0
x[7,10,1] 0
x[7,10,2] 0
x[7,10,3] 0
x[7,11,1] 0
x[7,11,2] 0
x[7,11,3] 0
x[7,12,1] 0
x[7,12,2] 0
x[7,12,3] 0
x[7,13,1] 0
x[7,13,2] 0
x[7,13,3] 0
x[7,14,1] 0
x[7,14,2] 0
x[7,14,3] 0
x[7,15,1] 0
x[7,15,2] 0
x[7,15,3] 0
x[8,0,1] 0
x[8,0,2] 0
x[8,0,3] 0
x[8,1,1] 0
x[8,1,2] 0
x[8,1,3] 0
x[8,2,1] 0
x[8,2,2] 0
x[8,2,3] 0
x[8,3,1] 0
x[8,3,2] 0
x[8,3,3] 0
x[8,4,1] 0
x[8,4,2] 0
x[8,4,3] 0
x[8,5,1] 0
x[8,5,2] 0
x[8,5,3] 0
x[8,6,1] 0
x[8,6,2] 1
x[8,6,3] 0
x[8,7,1] 0
x[8,7,2] 0
x[8,7,3] 0
x[8,9,1] 0
x[8,9,2] 0
x[8,9,3] 0
x[8,10,1] 0
x[8,10,2] 0
x[8,10,3] 0
x[8,11,1] 0
x[8,11,2] 0
x[8,11,3] 0
x[8,12,1] 0
x[8,12,2] 0
x[8,12,3] 0
x[8,13,1] 0
x[8,13,2] 0
x[8,13,3] 0
x[8,14,1] 0
x[8,14,2] 0
x[8,14,3] 0
x[8,15,1] 0
x[8,15,2] 0
x[8,15,3] 0
x[9,0,1] 0
x[9,0,2] 0
x[9,0,3] 0
x[9,1,1] 0
x[9,1,2] 0
x[9,1,3] 0
x[9,2,1] 0
x[9,2,2] 0
x[9,2,3] 0
x[9,3,1] 0
x[9,3,2] 0
x[9,3,3] 0
x[9,4,1] 0
x[9,4,2] 0
x[9,4,3] 0
x[9,5,1] 0
x[9,5,2] 0
x[9,5,3] 0
x[9,6,1] 0
x[9,6,2] 0
x[9,6,3] 0
x[9,7,1] 0
x[9,7,2] 0
x[9,7,3] 0
x[9,8,1] 0
x[9,8,2] 0
x[9,8,3] 0
x[9,10,1] 0
x[9,10,2] 0
x[9,10,3] 0
x[9,11,1] 0
x[9,11,2] 0
x[9,11,3] 0
x[9,12,1] 0
x[9,12,2] 0
x[9,12,3] 0
x[9,13,1] 0
x[9,13,2] 0
x[9,13,3] 1
x[9,14,1] 0
x[9,14,2] 0
x[9,14,3] 0
x[9,15,1] 0
x[9,15,2] 0
x[9,15,3] 0
x[10,0,1] 0
x[10,0,2] 0
x[10,0,3] 0
x[10,1,1] 0
x[10,1,2] 0
x[10,1,3] 0
x[10,2,1] 0
x[10,2,2] 0
x[10,2,3] 0
x[10,3,1] 0
x[10,3,2] 0
x[10,3,3] 0
x[10,4,1] 0
x[10,4,2] 0
x[10,4,3] 0
x[10,5,1] 0
x[10,5,2] 0
x[10,5,3] 0
x[10,6,1] 0
x[10,6,2] 0
x[10,6,3] 0
x[10,7,1] 0
x[10,7,2] 1
x[10,7,3] 0
x[10,8,1] 0
x[10,8,2] 0
x[10,8,3] 0
x[10,9,1] 0
x[10,9,2] 0
x[10,9,3] 0
x[10,11,1] 0
x[10,11,2] 0
x[10,11,3] 0
x[10,12,1] 0
x[10,12,2] 0
x[10,12,3] 0
x[10,13,1] 0
x[10,13,2] 0
x[10,13,3] 0
x[10,14,1] 0
x[10,14,2] 0
x[10,14,3] 0
x[10,15,1] 0
x[10,15,2] 0
x[10,15,3] 0
x[11,0,1] 1
x[11,0,2] 0
x[11,0,3] 0
x[11,1,1] 0
x[11,1,2] 0
x[11,1,3] 0
x[11,2,1] 0
x[11,2,2] 0
x[11,2,3] 0
x[11,3,1] 0
x[11,3,2] 0
x[11,3,3] 0
x[11,4,1] 0
x[11,4,2] 0
x[11,4,3] 0
x[11,5,1] 0
x[11,5,2] 0
x[11,5,3] 0
x[11,6,1] 0
x[11,6,2] 0
x[11,6,3] 0
x[11,7,1] 0
x[11,7,2] 0
x[11,7,3] 0
x[11,8,1] 0
x[11,8,2] 0
x[11,8,3] 0
x[11,9,1] 0
x[11,9,2] 0
x[11,9,3] 0
x[11,10,1] 0
x[11,10,2] 0
x[11,10,3] 0
x[11,12,1] 0
x[11,12,2] 0
x[11,12,3] 0
x[11,13,1] 0
x[11,13,2] 0
x[11,13,3] 0
x[11,14,1] 0
x[11,14,2] 0
x[11,14,3] 0
x[11,15,1] 0
x[11,15,2] 0
x[11,15,3] 0
x[12,0,1] 0
x[12,0,2] 0
x[12,0,3] 0
x[12,1,1] 1
x[12,1,2] 0
x[12,1,3] 0
x[12,2,1] 0
x[12,2,2] 0
x[12,2,3] 0
x[12,3,1] 0
x[12,3,2] 0
x[12,3,3] 0
x[12,4,1] 0
x[12,4,2] 0
x[12,4,3] 0
x[12,5,1] 0
x[12,5,2] 0
x[12,5,3] 0
x[12,6,1] 0
x[12,6,2] 0
x[12,6,3] 0
x[12,7,1] 0
x[12,7,2] 0
x[12,7,3] 0
x[12,8,1] 0
x[12,8,2] 0
x[12,8,3] 0
x[12,9,1] 0
x[12,9,2] 0
x[12,9,3] 0
x[12,10,1] 0
x[12,10,2] 0
x[12,10,3] 0
x[12,11,1] 0
x[12,11,2] 0
x[12,11,3] 0
x[12,13,1] 0
x[12,13,2] 0
x[12,13,3] 0
x[12,14,1] 0
x[12,14,2] 0
x[12,14,3] 0
x[12,15,1] 0
x[12,15,2] 0
x[12,15,3] 0
x[13,0,1] 0
x[13,0,2] 0
x[13,0,3] 0
x[13,1,1] 0
x[13,1,2] 0
x[13,1,3] 0
x[13,2,1] 0
x[13,2,2] 0
x[13,2,3] 0
x[13,3,1] 0
x[13,3,2] 0
x[13,3,3] 0
x[13,4,1] 0
x[13,4,2] 0
x[13,4,3] 0
x[13,5,1] 0
x[13,5,2] 0
x[13,5,3] 0
x[13,6,1] 0
x[13,6,2] 0
x[13,6,3] 0
x[13,7,1] 0
x[13,7,2] 0
x[13,7,3] 0
x[13,8,1] 0
x[13,8,2] 0
x[13,8,3] 0
x[13,9,1] 0
x[13,9,2] 0
x[13,9,3] 0
x[13,10,1] 0
x[13,10,2] 0
x[13,10,3] 0
x[13,11,1] 0
x[13,11,2] 0
x[13,11,3] 0
x[13,12,1] 0
x[13,12,2] 0
x[13,12,3] 0
x[13,14,1] 0
x[13,14,2] 0
x[13,14,3] 1
x[13,15,1] 0
x[13,15,2] 0
x[13,15,3] 0
x[14,0,1] 0
x[14,0,2] 0
x[14,0,3] 0
x[14,1,1] 0
x[14,1,2] 0
x[14,1,3] 0
x[14,2,1] 0
x[14,2,2] 0
x[14,2,3] 0
x[14,3,1] 0
x[14,3,2] 0
x[14,3,3] 0
x[14,4,1] 0
x[14,4,2] 0
x[14,4,3] 0
x[14,5,1] 0
x[14,5,2] 0
x[14,5,3] 1
x[14,6,1] 0
x[14,6,2] 0
x[14,6,3] 0
x[14,7,1] 0
x[14,7,2] 0
x[14,7,3] 0
x[14,8,1] 0
x[14,8,2] 0
x[14,8,3] 0
x[14,9,1] 0
x[14,9,2] 0
x[14,9,3] 0
x[14,10,1] 0
x[14,10,2] 0
x[14,10,3] 0
x[14,11,1] 0
x[14,11,2] 0
x[14,11,3] 0
x[14,12,1] 0
x[14,12,2] 0
x[14,12,3] 0
x[14,13,1] 0
x[14,13,2] 0
x[14,13,3] 0
x[14,15,1] 0
x[14,15,2] 0
x[14,15,3] 0
x[15,0,1] 0
x[15,0,2] 0
x[15,0,3] 0
x[15,1,1] 0
x[15,1,2] 0
x[15,1,3] 0
x[15,2,1] 0
x[15,2,2] 0
x[15,2,3] 0
x[15,3,1] 1
x[15,3,2] 0
x[15,3,3] 0
x[15,4,1] 0
x[15,4,2] 0
x[15,4,3] 0
x[15,5,1] 0
x[15,5,2] 0
x[15,5,3] 0
x[15,6,1] 0
x[15,6,2] 0
x[15,6,3] 0
x[15,7,1] 0
x[15,7,2] 0
x[15,7,3] 0
x[15,8,1] 0
x[15,8,2] 0
x[15,8,3] 0
x[15,9,1] 0
x[15,9,2] 0
x[15,9,3] 0
x[15,10,1] 0
x[15,10,2] 0
x[15,10,3] 0
x[15,11,1] 0
x[15,11,2] 0
x[15,11,3] 0
x[15,12,1] 0
x[15,12,2] 0
x[15,12,3] 0
x[15,13,1] 0
x[15,13,2] 0
x[15,13,3] 0
x[15,14,1] 0
x[15,14,2] 0
x[15,14,3] 0
y[1,1] 7
y[1,2] 0
y[1,3] 0
y[2,1] 0
y[2,2] 8
y[2,3] 0
y[3,1] 9
y[3,2] 0
y[3,3] 0
y[4,1] 0
y[4,2] 0
y[4,3] 7
y[5,1] 0
y[5,2] 0
y[5,3] 8
y[6,1] 0
y[6,2] 7
y[6,3] 0
y[7,1] 0
y[7,2] 7
y[7,3] 0
y[8,1] 0
y[8,2] 8
y[8,3] 0
y[9,1] 0
y[9,2] 0
y[9,3] 8
y[10,1] 0
y[10,2] 9
y[10,3] 0
y[11,1] 8
y[11,2] 0
y[11,3] 0
y[12,1] 8
y[12,2] 0
y[12,3] 0
y[13,1] 0
y[13,2] 0
y[13,3] 8
y[14,1] 0
y[14,2] 0
y[14,3] 8
y[15,1] 8
y[15,2] 0
y[15,3] 0
u[1,1] 9
u[1,2] 40
u[1,3] 40
u[2,1] 0
u[2,2] 8
u[2,3] 40
u[3,1] 11
u[3,2] 40
u[3,3] 40
u[4,1] 0
u[4,2] 40
u[4,3] 40
u[5,1] 0
u[5,2] 40
u[5,3] 39
u[6,1] 0
u[6,2] 10
u[6,3] 40
u[7,1] 0
u[7,2] 12
u[7,3] 40
u[8,1] 0
u[8,2] 9
u[8,3] 40
u[9,1] 0
u[9,2] 40
u[9,3] 8
u[10,1] 0
u[10,2] 11
u[10,3] 0
u[11,1] 80
u[11,2] 0
u[11,3] 40
u[12,1] 8
u[12,2] 40
u[12,3] 40
u[13,1] 0
u[13,2] 40
u[13,3] 9
u[14,1] 0
u[14,2] 0
u[14,3] 10
u[15,1] 10
u[15,2] 40
u[15,3] 40
z[1,1] 1
z[1,2] 0
z[1,3] 0
z[2,1] 0
z[2,2] 1
z[2,3] 0
z[3,1] 1
z[3,2] 0
z[3,3] 0
z[4,1] 0
z[4,2] 0
z[4,3] 1
z[5,1] 0
z[5,2] 0
z[5,3] 1
z[6,1] 0
z[6,2] 1
z[6,3] 0
z[7,1] 0
z[7,2] 1
z[7,3] 0
z[8,1] 0
z[8,2] 1
z[8,3] 0
z[9,1] 0
z[9,2] 0
z[9,3] 1
z[10,1] 0
z[10,2] 1
z[10,3] 0
z[11,1] 1
z[11,2] 0
z[11,3] 0
z[12,1] 1
z[12,2] 0
z[12,3] 0
z[13,1] 0
z[13,2] 0
z[13,3] 1
z[14,1] 0
z[14,2] 0
z[14,3] 1
z[15,1] 1
z[15,2] 0
z[15,3] 0
